unsat
(:binary-propagations  45
 :conflicts            1
 :final-checks         1
 :max-generation       1
 :max-memory           32.35
 :memory               23.57
 :mk-bool-var          5181
 :mk-clause            1557
 :mk-clause-binary     4071
 :num-allocs           223251631
 :num-checks           1
 :propagations         45
 :quant-instantiations 1132
 :restarts             1
 :rlimit-count         977818
 :time                 0.26)
